SCIP version 5.0.0 [precision: 8 byte] [memory: block] [mode: optimized] [LP solver: NONE] [GitHash: 3bbd232]
Copyright (C) 2002-2017 Konrad-Zuse-Zentrum fuer Informationstechnik Berlin (ZIB)

External codes: 
  Readline EditLine w  GNU library for command line editing (gnu.org/s/readline)
  CppAD 20160000.1     Algorithmic Differentiation of C++ algorithms developed by B. Bell (www.coin-or.org/CppAD)
  ZLIB 1.2.5           General purpose compression library by J. Gailly and M. Adler (zlib.net)
  GMP 6.1.2            GNU Multiple Precision Arithmetic Library developed by T. Granlund (gmplib.org)

user parameter file <scip.set> not found - using default parameters

read problem <../../Split_data/output/biodeg/0/0_sample_biodeg.logreg>
============

File name	:	../../Split_data/output/biodeg/0/0_sample_biodeg.logreg
Problem name 	:	0_sample_biodeg
Number of data	:	844
Number of var	:	41
The given data has linear independence

[dim=1] time: 0.029378
[dim=2] time: 0.059155
[dim=3] time: 0.093438
[dim=4] time: 0.12903
[dim=5] time: 0.16002
[dim=6] time: 0.18883
[dim=7] time: 0.224827
[dim=8] time: 0.250946
[dim=9] time: 0.277043
[dim=10] time: 0.316432
[dim=11] time: 0.34985
[dim=12] time: 0.374811
[dim=13] time: 0.399544
[dim=14] time: 0.422976
[dim=15] time: 0.443308
[dim=16] time: 0.460777
[dim=17] time: 0.477905
[dim=18] time: 0.494887
[dim=19] time: 0.512708
[dim=20] time: 0.531281
[dim=21] time: 0.5491
[dim=22] time: 0.566351
[dim=23] Time of forward = 0.583683sec.
AIC: 512.242
k: 22

[dim=41] time: 0.150719
[dim=40] time: 0.194796
[dim=39] time: 0.248822
[dim=38] time: 0.294028
[dim=37] time: 0.336769
[dim=36] time: 0.375525
[dim=35] time: 0.419432
[dim=34] time: 0.463357
[dim=33] time: 0.516618
[dim=32] time: 0.569628
[dim=31] time: 0.610243
[dim=30] time: 0.647822
[dim=29] time: 0.68288
[dim=28] time: 0.720022
[dim=27] time: 0.74877
[dim=26] time: 0.785982
[dim=25] time: 0.814206
[dim=24] time: 0.836549
[dim=23] time: 0.859645
[dim=22] time: 0.884834
[dim=21] Time of backward = 0.90819sec.
AIC: 509.287
k: 22
